
Gurobi 9.5.1 (mac64[x86]) logging started Thu Jun  9 19:13:28 2022

Set parameter LogFile to value "/Users/keyvanmajd/Documents/GitHub/NNRepLayer_v2/demos/walking_example/dynamic_constraint/repair_net/logs/opt_log_6_9_2022_19_12_36.log"
Gurobi Optimizer version 9.5.1 build v9.5.1rc2 (mac64[x86])
Thread count: 4 physical cores, 8 logical processors, using up to 8 threads
Optimize a model with 37077 rows, 22792 columns and 105173 nonzeros
Model fingerprint: 0x8113440a
Model has 136 quadratic objective terms
Variable types: 9832 continuous, 12960 integer (12960 binary)
Coefficient statistics:
  Matrix range     [7e-04, 5e+01]
  Objective range  [2e-02, 3e+00]
  QObjective range [1e-01, 2e+00]
  Bounds range     [1e+00, 5e+01]
  RHS range        [2e-04, 5e+01]
Presolve removed 22254 rows and 8832 columns
Presolve time: 0.24s
Presolved: 14823 rows, 13960 columns, 69575 nonzeros
Presolved model has 136 quadratic objective terms
Variable types: 9640 continuous, 4320 integer (4320 binary)
Found heuristic solution: objective 63.0873315
Root relaxation presolve removed 4320 rows and 4320 columns
Root relaxation presolved: 10503 rows, 9640 columns, 60935 nonzeros
Root relaxation presolved model has 136 quadratic objective terms


Root relaxation: objective 4.754099e+01, 12418 iterations, 1.37 seconds (2.53 work units)

    Nodes    |    Current Node    |     Objective Bounds      |     Work
 Expl Unexpl |  Obj  Depth IntInf | Incumbent    BestBd   Gap | It/Node Time

     0     0   47.54099    0  834   63.08733   47.54099  24.6%     -    2s
H    0     0                      63.0023873   47.54099  24.5%     -    3s
H    0     0                      62.9906497   47.54099  24.5%     -   12s
H    0     0                      62.9640170   47.54099  24.5%     -   12s
H    0     0                      62.5822017   47.54099  24.0%     -   12s
     0     0   47.54099    0  388   62.58220   47.54099  24.0%     -   12s
     0     0   47.54099    0  649   62.58220   47.54099  24.0%     -   23s
     0     0   47.54099    0  795   62.58220   47.54099  24.0%     -   23s
     0     0   47.54099    0  776   62.58220   47.54099  24.0%     -   34s
     0     0   47.54099    0  839   62.58220   47.54099  24.0%     -   35s
     0     0   47.54099    0  816   62.58220   47.54099  24.0%     -   35s
     0     0   47.54099    0  890   62.58220   47.54099  24.0%     -   37s
H    0     0                      62.5624849   47.54099  24.0%     -   58s
     0     2   47.54099    0  890   62.56248   47.54099  24.0%     -   61s
     3     8   47.56429    2  939   62.56248   47.54099  24.0%   813   67s
     7    12   47.56429    3  980   62.56248   47.54099  24.0%  1461   71s
    60    69   47.56429   15  983   62.56248   47.54099  24.0%   407   76s
H   61    69                      62.3719614   47.54099  23.8%   400   76s
H   63    69                      62.2102829   47.54099  23.6%   389   76s
   399   431   47.56435  117  806   62.21028   47.54099  23.6%  94.9   80s
   466   481   47.56435  143  775   62.21028   47.54099  23.6%  89.1   90s
H  480   485                      62.1014645   47.54099  23.4%  87.5   97s
H  482   485                      61.7045060   47.54099  23.0%  87.8   97s
H  483   485                      61.2722737   47.54099  22.4%  87.7   97s
   882  1027   47.56435  311  564   61.27227   47.54099  22.4%  69.6  100s
  1390  1643   47.56435  447  452   61.27227   47.54099  22.4%  58.6  105s
  2038  2295   47.57810  569  409   61.27227   47.54099  22.4%  55.4  111s
  2712  2802   47.59076  666  615   61.27227   47.54099  22.4%  53.5  116s
  2916  3148   47.61478  721  648   61.27227   47.54099  22.4%  58.8  120s
  3753  3953   47.63032  808  637   61.27227   47.54099  22.4%  56.0  126s
  4205  4344   47.63032  906  591   61.27227   47.54099  22.4%  57.5  131s
  4415  4467   47.63032  973  583   61.27227   47.54099  22.4%  63.4  139s
  4466  4471   47.63032  994  622   61.27227   47.54099  22.4%  73.0  158s
H 4467  4471                      61.0203645   47.54099  22.1%  73.0  158s
H 4468  4471                      60.2599871   47.54099  21.1%  73.0  158s
  4470  4561   47.63032  995  625   60.25999   47.54099  21.1%  73.0  160s
  4560  4602   47.63032 1020  618   60.25999   47.54099  21.1%  74.7  170s
  4601  4616   47.63032 1026  610   60.25999   47.54099  21.1%  86.7  179s
  4615  4647   47.63032 1029  606   60.25999   47.54099  21.1%   111  191s
  4646  4652   47.63032 1039  610   60.25999   47.54099  21.1%   130  197s

Cutting planes:
  Gomory: 1
  Implied bound: 331
  MIR: 1541
  Flow cover: 628
  Relax-and-lift: 19

Explored 4651 nodes (655222 simplex iterations) in 197.76 seconds (383.66 work units)
Thread count was 8 (of 8 available processors)

Solution count 10: 60.26 61.0204 61.2723 ... 62.964

Solve interrupted
Best objective 6.025998713503e+01, best bound 4.754098961845e+01, gap 21.1069%
